dummy/m_c/c.smt2.cnf
c declass --> [ 15 16 17 18]
c observe --> [ 27 28 29 30 31 32 33 34]
c control --> [ 35 36 37 38 39 40 41 42]
c secret --> [ 19 20 21 22 23 24 25 26]
c Result of efficient AIG-to-CNF conversion using package CNF
p cnf 43 65
2 -3 -6 -9 -12 0
-2 12 0
-2 3 0
-2 9 0
-2 6 0
3 16 20 -4 -5 0
3 -16 -20 -4 -5 0
-3 5 0
-3 -16 20 0
-3 4 0
-3 16 -20 0
4 -15 -19 0
4 15 19 0
-4 15 -19 0
-4 -15 19 0
5 -17 18 -21 22 0
5 17 -18 21 -22 0
5 17 18 21 22 0
5 -17 -18 -21 -22 0
-5 -17 21 0
-5 17 -21 0
-5 18 -22 0
-5 -18 22 0
6 -27 28 -7 8 0
6 27 -28 7 -8 0
6 27 28 7 8 0
6 -27 -28 -7 -8 0
-6 -27 7 0
-6 27 -7 0
-6 28 -8 0
-6 -28 8 0
7 -19 -35 0
-7 19 0
-7 35 0
8 -20 -36 0
-8 20 0
-8 36 0
9 -29 30 -10 11 0
9 29 -30 10 -11 0
9 29 30 10 11 0
9 -29 -30 -10 -11 0
-9 -29 10 0
-9 29 -10 0
-9 30 -11 0
-9 -30 11 0
10 -21 -37 0
-10 21 0
-10 37 0
11 -22 -38 0
-11 22 0
-11 38 0
12 31 32 13 -14 0
12 31 -32 -13 -14 0
-12 14 0
-12 -32 13 0
-12 -31 0
-12 32 -13 0
13 -24 -40 0
-13 24 0
-13 40 0
14 33 34 0
-14 -33 0
-14 -34 0
43 0
2 0

